TOUR_SECTION
168
18
192
92
33
30
195
130
57
77
199
167
70
93
71
79
154
102
2
124
169
165
48
180
82
42
109
63
78
51
89
9
43
150
66
156
72
127
45
49
160
161
189
110
149
94
55
40
34
76
103
12
116
133
64
6
46
198
152
117
8
162
186
119
61
88
4
59
69
101
132
23
96
97
80
67
104
135
91
139
50
185
190
184
141
37
62
25
112
197
118
83
86
123
166
47
84
194
172
145
44
17
163
3
181
87
171
108
173
35
178
60
65
14
10
36
200
99
140
19
153
39
175
85
193
137
134
174
1
114
144
16
74
20
159
24
120
151
148
15
5
142
146
179
196
128
122
158
107
90
95
125
13
126
147
98
21
29
143
11
105
157
100
68
182
41
56
52
155
54
136
73
113
75
28
183
115
170
138
32
111
188
164
191
38
176
27
129
131
7
53
187
121
31
177
106
81
58
26
22
-1
EOF